Optimal - objective value 6.22222100
      0 r_0                         0                0.972222
      1 r_1                         0                0.944444
      2 r_2                         0                0.944444
      3 r_3                         1                0.944444
      4 r_4                         0                0.944444
      5 r_5                         0                0.944444
      6 r_6                         0                0.916667
      7 r_7                         0                0.916667
      8 r_8                         0                0.916667
      9 r_9                         1                0.888889
     10 r_10                        0                0.888889
     11 r_11                        1                0.861111
     12 r_12                        0                0.861111
     13 r_13                        1                0.861111
     14 r_14                        0                0.861111
     15 r_15                        0                0.833333
     16 b_0                         0                0.972222
     17 b_1                         0                0.944444
     18 b_2                         0                0.944444
     19 b_3                         0                0.944444
     20 b_4                         0                0.944444
     21 b_5                         1                0.944444
     22 b_6                         0                0.916667
     23 b_7                         0                0.916667
     24 b_8                         0                0.916667
     25 b_9                         0                0.888889
     26 b_10                        1                0.888889
     27 b_11                        0                0.861111
     28 b_12                        0                0.861111
     29 b_13                        0                0.861111
     30 b_14                        0                0.861111
     31 b_15                        1                0.833333
